c description: Random 3-CNF over 22 variables and 94 clauses
c generator: CNFgen (0.9.2)
c copyright: (C) 2012-2022 Massimo Lauria <massimo.lauria@uniroma1.it>
c url: https://massimolauria.net/cnfgen
c command line: cnfgen --output CNF_4.28/22_bit_94_17.cnf randkcnf 3 22 94
c
p cnf 22 94
7 -12 20 0
10 -11 22 0
-13 17 18 0
4 11 20 0
2 16 17 0
-4 11 20 0
13 20 -21 0
-14 -18 -22 0
-6 -12 20 0
4 9 -21 0
2 -18 -21 0
-6 -8 10 0
2 5 22 0
-7 -15 -18 0
6 9 11 0
-3 -15 -16 0
17 21 -22 0
-3 13 -15 0
-5 -15 -20 0
12 -18 19 0
-7 9 -21 0
6 11 20 0
-7 -10 12 0
1 -17 -20 0
-1 9 20 0
7 -17 22 0
7 -13 20 0
-3 4 14 0
-2 8 16 0
-3 -11 -18 0
-18 -19 22 0
-5 -13 22 0
-9 -12 -14 0
8 18 -19 0
6 7 16 0
14 16 -21 0
5 15 16 0
6 -10 -15 0
1 14 -17 0
4 -5 22 0
2 -3 -5 0
10 -15 20 0
2 -6 13 0
5 6 -20 0
-5 18 22 0
7 -18 19 0
1 9 21 0
-4 18 -21 0
-2 13 17 0
-5 -10 -15 0
-1 2 12 0
2 7 -19 0
-16 -20 22 0
-10 -13 -21 0
-15 -19 -22 0
-3 -4 8 0
8 -9 -22 0
-12 15 -22 0
-12 -16 20 0
-9 -19 22 0
16 -20 -22 0
3 7 10 0
-9 17 -21 0
4 -16 22 0
-4 -6 17 0
-8 -11 18 0
-2 10 -21 0
4 7 11 0
-2 -3 -15 0
2 -4 7 0
2 6 -19 0
3 14 20 0
4 12 15 0
9 -11 -21 0
-3 -10 -21 0
2 -3 -9 0
-3 12 -21 0
-3 7 15 0
13 -15 -20 0
7 -8 12 0
-8 11 -14 0
-2 11 17 0
-1 6 9 0
-9 15 19 0
-3 4 -19 0
5 8 22 0
-10 21 -22 0
-4 -20 22 0
8 11 22 0
16 20 -21 0
-18 19 20 0
-6 9 -20 0
-1 3 20 0
3 -11 15 0
